Gurobi Optimizer version 10.0.3 build v10.0.3rc0 (win64)

CPU model: 13th Gen Intel(R) Core(TM) i7-13700T, instruction set [SSE2|AVX|AVX2]
Thread count: 16 physical cores, 24 logical processors, using up to 24 threads

Optimize a model with 6772245 rows, 543629 columns and 13802405 nonzeros
Model fingerprint: 0xa2462aaa
Variable types: 0 continuous, 543629 integer (73800 binary)
Coefficient statistics:
  Matrix range     [1e+00, 6e+02]
  Objective range  [6e+00, 3e+02]
  Bounds range     [1e+00, 1e+00]
  RHS range        [1e+00, 6e+02]
Presolve removed 169210 rows and 392413 columns (presolve time = 5s) ...
Presolve removed 169210 rows and 392413 columns (presolve time = 10s) ...
Presolve removed 169210 rows and 392413 columns (presolve time = 15s) ...
Presolve removed 169210 rows and 392413 columns (presolve time = 20s) ...
Presolve removed 169210 rows and 392413 columns (presolve time = 25s) ...
Presolve removed 169210 rows and 392413 columns (presolve time = 30s) ...
Presolve removed 169210 rows and 412194 columns (presolve time = 35s) ...
Presolve removed 1040205 rows and 412194 columns (presolve time = 40s) ...
Presolve removed 1040454 rows and 412465 columns (presolve time = 45s) ...
Presolve removed 1040543 rows and 412465 columns (presolve time = 50s) ...
Presolve removed 1040543 rows and 412465 columns (presolve time = 55s) ...
Presolve removed 1040543 rows and 412465 columns (presolve time = 60s) ...
Presolve removed 1904141 rows and 432483 columns (presolve time = 65s) ...
Presolve removed 1904576 rows and 432483 columns (presolve time = 70s) ...
Presolve removed 1904576 rows and 432483 columns (presolve time = 75s) ...
Presolve removed 1904576 rows and 432483 columns (presolve time = 80s) ...
Presolve removed 2361302 rows and 432502 columns (presolve time = 85s) ...
Presolve removed 2385963 rows and 451585 columns (presolve time = 90s) ...
Presolve removed 2386279 rows and 451585 columns (presolve time = 95s) ...
Presolve removed 2386358 rows and 451585 columns (presolve time = 100s) ...
Presolve removed 2546173 rows and 451585 columns (presolve time = 105s) ...
Presolve removed 2574098 rows and 451585 columns (presolve time = 110s) ...
Presolve removed 2604368 rows and 451585 columns (presolve time = 116s) ...
Presolve removed 2630889 rows and 451585 columns (presolve time = 120s) ...
Presolve removed 2660748 rows and 451585 columns (presolve time = 126s) ...
Presolve removed 2692328 rows and 451585 columns (presolve time = 131s) ...
Presolve removed 2717239 rows and 451585 columns (presolve time = 135s) ...
Presolve removed 2749267 rows and 451585 columns (presolve time = 141s) ...
Presolve removed 2777544 rows and 451585 columns (presolve time = 146s) ...
Presolve removed 2801797 rows and 451585 columns (presolve time = 150s) ...
Presolve removed 3258401 rows and 471538 columns (presolve time = 155s) ...
Presolve removed 3265004 rows and 471538 columns (presolve time = 160s) ...
Presolve removed 3265595 rows and 471538 columns (presolve time = 165s) ...
Presolve removed 3418210 rows and 471538 columns (presolve time = 171s) ...
Presolve removed 3440602 rows and 471538 columns (presolve time = 175s) ...
Presolve removed 3466937 rows and 471538 columns (presolve time = 180s) ...
Presolve removed 3494918 rows and 471538 columns (presolve time = 186s) ...
Presolve removed 3520406 rows and 471538 columns (presolve time = 191s) ...
Presolve removed 3546449 rows and 471538 columns (presolve time = 196s) ...
Presolve removed 3572252 rows and 471538 columns (presolve time = 201s) ...
Presolve removed 3596900 rows and 471538 columns (presolve time = 206s) ...
Presolve removed 3629114 rows and 471538 columns (presolve time = 213s) ...
Presolve removed 3642936 rows and 471538 columns (presolve time = 215s) ...
Presolve removed 3679308 rows and 471538 columns (presolve time = 222s) ...
Presolve removed 4114528 rows and 472510 columns (presolve time = 225s) ...
Presolve removed 4140944 rows and 491430 columns (presolve time = 230s) ...
Presolve removed 4145134 rows and 491430 columns (presolve time = 235s) ...
Presolve removed 4487302 rows and 491430 columns (presolve time = 240s) ...
Presolve removed 5010630 rows and 511164 columns (presolve time = 245s) ...
Presolve removed 5018838 rows and 511164 columns (presolve time = 250s) ...
Presolve removed 5178665 rows and 511164 columns (presolve time = 256s) ...
Presolve removed 5226067 rows and 511164 columns (presolve time = 260s) ...
Presolve removed 5274976 rows and 511164 columns (presolve time = 265s) ...
Presolve removed 5328875 rows and 511164 columns (presolve time = 270s) ...
Presolve removed 5378360 rows and 511164 columns (presolve time = 275s) ...
Presolve removed 5430990 rows and 511164 columns (presolve time = 280s) ...
Presolve removed 5894106 rows and 530731 columns (presolve time = 285s) ...
Presolve removed 6067024 rows and 530731 columns (presolve time = 290s) ...
Presolve removed 6106202 rows and 530731 columns (presolve time = 295s) ...
Presolve removed 6144869 rows and 530731 columns (presolve time = 300s) ...
Presolve removed 6190115 rows and 530731 columns (presolve time = 306s) ...
Presolve removed 6227370 rows and 530731 columns (presolve time = 310s) ...
Presolve removed 6268446 rows and 530731 columns (presolve time = 315s) ...
Presolve removed 6524422 rows and 531724 columns (presolve time = 320s) ...
Presolve removed 6642260 rows and 540690 columns (presolve time = 326s) ...
Presolve removed 6688966 rows and 540690 columns (presolve time = 331s) ...
Presolve removed 6737679 rows and 540690 columns (presolve time = 336s) ...
Presolve removed 6770012 rows and 542503 columns
Presolve time: 337.42s
Presolved: 2233 rows, 1126 columns, 5151 nonzeros
Variable types: 0 continuous, 1126 integer (374 binary)
Found heuristic solution: objective 40543.330000
Found heuristic solution: objective 48622.780000

Root simplex log...

Iteration    Objective       Primal Inf.    Dual Inf.      Time
       0    9.3340370e+04   8.768750e+02   0.000000e+00    339s
    1001    8.9234170e+04   0.000000e+00   0.000000e+00    339s

Root relaxation: objective 8.923417e+04, 1001 iterations, 0.01 seconds (0.00 work units)

    Nodes    |    Current Node    |     Objective Bounds      |     Work
 Expl Unexpl |  Obj  Depth IntInf | Incumbent    BestBd   Gap | It/Node Time

     0     0 89234.1700    0   70 48622.7800 89234.1700  83.5%     -  338s
H    0     0                    87480.270000 89234.1700  2.00%     -  338s
H    0     0                    88581.270000 89234.1700  0.74%     -  338s
     0     0 88916.2200    0    4 88581.2700 88916.2200  0.38%     -  338s
H    0     0                    88598.270000 88916.2200  0.36%     -  338s
H    0     0                    88830.170000 88916.2200  0.10%     -  338s
     0     0 88845.9800    0    6 88830.1700 88845.9800  0.02%     -  338s
H    0     0                    88837.170000 88845.9800  0.01%     -  338s

Explored 1 nodes (1380 simplex iterations) in 338.82 seconds (125.89 work units)
Thread count was 24 (of 24 available processors)

Solution count 7: 88837.2 88830.2 88598.3 ... 40543.3

Optimal solution found (tolerance 1.00e-04)
Best objective 8.883717000000e+04, best bound 8.884597000000e+04, gap 0.0099%
Valor da função objetivo:  88837.17000000001

Tempo para criar o modelo:  50.0866641998291
